$comment
TMM ground and excited states
$end 

$molecule
0 3
O
O 1 r1

r1 1.2
$end

$rem
  jobtype           sp
  method            rasci
  basis             cc-pvdz 
  max_scf_cycles    200
  scf_algorithm     dm
  unrestricted      false         ! RASCI only works with unrestricted orbitals
!RASCI
  set_iter	100
  RAS_ROOTS         4             ! Compute 9 states
  RAS_ELEC          2             ! Active electrons    (RAS2)
  RAS_ACT           2             ! Active orbitals     (RAS2)
! RAS_OCC           25            ! Doubly occ orbitals (RAS1)
  RAS_DO_HOLE       1          	  ! Compute hole contributions (RAS1 -> RAS2)
  RAS_DO_PART       1         	  ! Compute part contributions (RAS2 -> RAS3)
  RAS_SPIN_MULT     0             ! Compute any spin multiplicity
  RAS_NATORB        true          ! Compute natural orbital occupancies
! RAS_ACT_ORB       [26,27,28,29] ! Pick active orbitals
! RAS_NATORB_STATE  2             ! Save natural orbitals of state 2 in file 53.0
! RAS_GUESS_CS      1             ! Force (at least) 1 close shell guess
$end


