$comment
TMM ground and excited states
$end 

$molecule
0 3
O
O 1 r1

r1 1.2
$end

$rem
jobtype           SP
unrestricted      FALSE   ! SF-XCIS runs from ROHF triplet reference
EXCHANGE          HF      ! Exact exchange
BASIS            cc-pvdz 
PURCAR            1       ! 5D
SCF_CONVERGENCE   10
SCF_ALGORITHM     DM
MAX_SCF_CYCLES    100
SPIN_FLIP         1       ! Not necessary for SF-XCIS
SPIN_FLIP_XCIS    1       ! Do SF-XCIS
CIS_N_ROOTS       3
CIS_SINGLETS      1       ! Do singlets
CIS_TRIPLETS      1       ! Do triplets
CIS_CONVERGENCE   10
MAX_CIS_CYCLES    100
$end

